rcpsp/heur_output_or_constraints/Log=2/heurj60.txt
encoding rcpsp/j60.sm/j6031_9.sm nv: 2216625 nc: 4469654 enctime: 30.60
encoding rcpsp/j60.sm/j6031_9.sm nv: 443325 nc: 891554 enctime: 5.11
c File: j6031_9.smnaiveor2.wcnf
c optimal
c final solution cost: 73
c CPU time: 5.891336
s OPTIMUM FOUND

c File: j6031_9.smor2.wcnf
c optimal
c final solution cost: 73
c CPU time: 0.977386
s OPTIMUM FOUND


rcpsp/heur_output_or_constraints/Log=2/heurj60.txt
encoding rcpsp/j60.sm/j603_1.sm nv: 172161 nc: 399317 enctime: 4.09
encoding rcpsp/j60.sm/j603_1.sm nv: 25333 nc: 56813 enctime: 0.38
c File: j603_1.smnaiveor2.wcnf
c optimal
c final solution cost: 44
c CPU time: 1.083623
s OPTIMUM FOUND

c File: j603_1.smor2.wcnf
c optimal
c final solution cost: 44
c CPU time: 0.063854
s OPTIMUM FOUND


rcpsp/heur_output_or_constraints/Log=2/heurj60.txt
encoding rcpsp/j60.sm/j6032_10.sm nv: 2036880 nc: 4089473 enctime: 27.30
encoding rcpsp/j60.sm/j6032_10.sm nv: 366390 nc: 733698 enctime: 4.25
c File: j6032_10.smnaiveor2.wcnf
c optimal
c final solution cost: 50
c CPU time: 14.502387
s OPTIMUM FOUND

c File: j6032_10.smor2.wcnf
c optimal
c final solution cost: 50
c CPU time: 3.445668
s OPTIMUM FOUND


rcpsp/heur_output_or_constraints/Log=2/heurj60.txt
encoding rcpsp/j60.sm/j6032_1.sm nv: 2955810 nc: 5902411 enctime: 44.47
encoding rcpsp/j60.sm/j6032_1.sm nv: 419760 nc: 836111 enctime: 5.13
c File: j6032_1.smnaiveor2.wcnf
c optimal
c final solution cost: 47
c CPU time: 7.608661
s OPTIMUM FOUND

c File: j6032_1.smor2.wcnf
c optimal
c final solution cost: 47
c CPU time: 0.859297
s OPTIMUM FOUND


rcpsp/heur_output_or_constraints/Log=2/heurj60.txt
encoding rcpsp/j60.sm/j6032_2.sm nv: 2117682 nc: 4259511 enctime: 31.17
encoding rcpsp/j60.sm/j6032_2.sm nv: 481572 nc: 966621 enctime: 6.76
c File: j6032_2.smnaiveor2.wcnf
c optimal
c final solution cost: 76
c CPU time: 6.720937
s OPTIMUM FOUND

c File: j6032_2.smor2.wcnf
c optimal
c final solution cost: 76
c CPU time: 1.557972
s OPTIMUM FOUND


rcpsp/heur_output_or_constraints/Log=2/heurj60.txt
encoding rcpsp/j60.sm/j6032_3.sm nv: 2614044 nc: 5245739 enctime: 42.97
encoding rcpsp/j60.sm/j6032_3.sm nv: 442701 nc: 886058 enctime: 5.74
c File: j6032_3.smnaiveor2.wcnf
c optimal
c final solution cost: 49
c CPU time: 21.662011
s OPTIMUM FOUND

c File: j6032_3.smor2.wcnf
c optimal
c final solution cost: 49
c CPU time: 6.273675
s OPTIMUM FOUND


rcpsp/heur_output_or_constraints/Log=2/heurj60.txt
encoding rcpsp/j60.sm/j6032_4.sm nv: 2622312 nc: 5227717 enctime: 38.29
encoding rcpsp/j60.sm/j6032_4.sm nv: 366102 nc: 728017 enctime: 5.17
c File: j6032_4.smnaiveor2.wcnf
c optimal
c final solution cost: 42
c CPU time: 7.588754
s OPTIMUM FOUND

c File: j6032_4.smor2.wcnf
c optimal
c final solution cost: 42
c CPU time: 0.726595
s OPTIMUM FOUND


rcpsp/heur_output_or_constraints/Log=2/heurj60.txt
encoding rcpsp/j60.sm/j6032_5.sm nv: 2134944 nc: 4285017 enctime: 33.57
encoding rcpsp/j60.sm/j6032_5.sm nv: 387594 nc: 776017 enctime: 5.16
c File: j6032_5.smnaiveor2.wcnf
c optimal
c final solution cost: 51
c CPU time: 11.637143
s OPTIMUM FOUND

c File: j6032_5.smor2.wcnf
c optimal
c final solution cost: 51
c CPU time: 0.987057
s OPTIMUM FOUND


rcpsp/heur_output_or_constraints/Log=2/heurj60.txt
encoding rcpsp/j60.sm/j6032_6.sm nv: 2074475 nc: 4164830 enctime: 31.66
encoding rcpsp/j60.sm/j6032_6.sm nv: 427661 nc: 856754 enctime: 6.03
c File: j6032_6.smnaiveor2.wcnf
c optimal
c final solution cost: 66
c CPU time: 5.719388
s OPTIMUM FOUND

c File: j6032_6.smor2.wcnf
c optimal
c final solution cost: 66
c CPU time: 0.897272
s OPTIMUM FOUND


rcpsp/heur_output_or_constraints/Log=2/heurj60.txt
encoding rcpsp/j60.sm/j6032_7.sm nv: 2177835 nc: 4369435 enctime: 33.07
encoding rcpsp/j60.sm/j6032_7.sm nv: 383559 nc: 767635 enctime: 5.39
c File: j6032_7.smnaiveor2.wcnf
c optimal
c final solution cost: 56
c CPU time: 21.184390
s OPTIMUM FOUND

c File: j6032_7.smor2.wcnf
c optimal
c final solution cost: 56
c CPU time: 0.924135
s OPTIMUM FOUND


rcpsp/heur_output_or_constraints/Log=2/heurj60.txt
encoding rcpsp/j60.sm/j6032_8.sm nv: 2115729 nc: 4231504 enctime: 28.93
encoding rcpsp/j60.sm/j6032_8.sm nv: 421740 nc: 841839 enctime: 6.22
c File: j6032_8.smnaiveor2.wcnf
c optimal
c final solution cost: 59
c CPU time: 5.175839
s OPTIMUM FOUND

c File: j6032_8.smor2.wcnf
c optimal
c final solution cost: 59
c CPU time: 0.835253
s OPTIMUM FOUND


rcpsp/heur_output_or_constraints/Log=2/heurj60.txt
encoding rcpsp/j60.sm/j6032_9.sm nv: 2370786 nc: 4774542 enctime: 39.17
encoding rcpsp/j60.sm/j6032_9.sm nv: 431052 nc: 865698 enctime: 5.53
c File: j6032_9.smnaiveor2.wcnf
c optimal
c final solution cost: 63
c CPU time: 7.753236
s OPTIMUM FOUND

c File: j6032_9.smor2.wcnf
c optimal
c final solution cost: 63
c CPU time: 1.298363
s OPTIMUM FOUND


rcpsp/heur_output_or_constraints/Log=2/heurj60.txt
encoding rcpsp/j60.sm/j603_2.sm nv: 182484 nc: 421198 enctime: 4.67
encoding rcpsp/j60.sm/j603_2.sm nv: 27948 nc: 62494 enctime: 0.27
c File: j603_2.smnaiveor2.wcnf
c optimal
c final solution cost: 43
c CPU time: 1.103976
s OPTIMUM FOUND

c File: j603_2.smor2.wcnf
c optimal
c final solution cost: 43
c CPU time: 0.059335
s OPTIMUM FOUND


rcpsp/heur_output_or_constraints/Log=2/heurj60.txt
encoding rcpsp/j60.sm/j6033_10.sm nv: 114521 nc: 291127 enctime: 3.76
encoding rcpsp/j60.sm/j6033_10.sm nv: 24771 nc: 61127 enctime: 0.31
c File: j6033_10.smnaiveor2.wcnf
c optimal
c final solution cost: 61
c CPU time: 1.563602
s OPTIMUM FOUND

c File: j6033_10.smor2.wcnf
c optimal
c final solution cost: 61
c CPU time: 0.161040
s OPTIMUM FOUND


rcpsp/heur_output_or_constraints/Log=2/heurj60.txt
encoding rcpsp/j60.sm/j6033_1.sm nv: 128737 nc: 335932 enctime: 4.65
encoding rcpsp/j60.sm/j6033_1.sm nv: 39326 nc: 100716 enctime: 0.80
c File: j6033_1.smnaiveor2.wcnf
c optimal
c final solution cost: 94
c CPU time: 1.780324
s OPTIMUM FOUND

c File: j6033_1.smor2.wcnf
c optimal
c final solution cost: 94
c CPU time: 0.339093
s OPTIMUM FOUND


rcpsp/heur_output_or_constraints/Log=2/heurj60.txt
encoding rcpsp/j60.sm/j6033_2.sm nv: 127794 nc: 338207 enctime: 5.40
encoding rcpsp/j60.sm/j6033_2.sm nv: 28519 nc: 73382 enctime: 0.66
c File: j6033_2.smnaiveor2.wcnf
c optimal
c final solution cost: 78
c CPU time: 4.044128
s OPTIMUM FOUND

c File: j6033_2.smor2.wcnf
c optimal
c final solution cost: 78
c CPU time: 0.161467
s OPTIMUM FOUND


rcpsp/heur_output_or_constraints/Log=2/heurj60.txt
encoding rcpsp/j60.sm/j6033_3.sm nv: 118422 nc: 292250 enctime: 3.97
encoding rcpsp/j60.sm/j6033_3.sm nv: 31734 nc: 76762 enctime: 0.61
c File: j6033_3.smnaiveor2.wcnf
c optimal
c final solution cost: 73
c CPU time: 1.893926
s OPTIMUM FOUND

c File: j6033_3.smor2.wcnf
c optimal
c final solution cost: 73
c CPU time: 0.163712
s OPTIMUM FOUND


rcpsp/heur_output_or_constraints/Log=2/heurj60.txt
encoding rcpsp/j60.sm/j6033_4.sm nv: 139258 nc: 353853 enctime: 4.96
encoding rcpsp/j60.sm/j6033_4.sm nv: 31262 nc: 77479 enctime: 0.37
c File: j6033_4.smnaiveor2.wcnf
c optimal
c final solution cost: 60
c CPU time: 1.788234
s OPTIMUM FOUND

c File: j6033_4.smor2.wcnf
c optimal
c final solution cost: 60
c CPU time: 0.236662
s OPTIMUM FOUND


rcpsp/heur_output_or_constraints/Log=2/heurj60.txt
encoding rcpsp/j60.sm/j6033_5.sm nv: 135780 nc: 364945 enctime: 5.33
encoding rcpsp/j60.sm/j6033_5.sm nv: 41610 nc: 109783 enctime: 1.16
c File: j6033_5.smnaiveor2.wcnf
c optimal
c final solution cost: 97
c CPU time: 2.742525
s OPTIMUM FOUND

c File: j6033_5.smor2.wcnf
c optimal
c final solution cost: 97
c CPU time: 0.295551
s OPTIMUM FOUND


rcpsp/heur_output_or_constraints/Log=2/heurj60.txt
encoding rcpsp/j60.sm/j6033_6.sm nv: 122778 nc: 320927 enctime: 4.36
encoding rcpsp/j60.sm/j6033_6.sm nv: 28720 nc: 73075 enctime: 0.51
c File: j6033_6.smnaiveor2.wcnf
c optimal
c final solution cost: 63
c CPU time: 1.790567
s OPTIMUM FOUND

c File: j6033_6.smor2.wcnf
c optimal
c final solution cost: 63
c CPU time: 0.278743
s OPTIMUM FOUND


rcpsp/heur_output_or_constraints/Log=2/heurj60.txt
encoding rcpsp/j60.sm/j6033_7.sm nv: 113202 nc: 304538 enctime: 4.17
encoding rcpsp/j60.sm/j6033_7.sm nv: 24494 nc: 63874 enctime: 0.31
c File: j6033_7.smnaiveor2.wcnf
c optimal
c final solution cost: 63
c CPU time: 1.123381
s OPTIMUM FOUND

c File: j6033_7.smor2.wcnf
c optimal
c final solution cost: 63
c CPU time: 0.162823
s OPTIMUM FOUND


rcpsp/heur_output_or_constraints/Log=2/heurj60.txt
encoding rcpsp/j60.sm/j6033_8.sm nv: 126876 nc: 320025 enctime: 4.02
encoding rcpsp/j60.sm/j6033_8.sm nv: 29488 nc: 72539 enctime: 0.50
c File: j6033_8.smnaiveor2.wcnf
c optimal
c final solution cost: 64
c CPU time: 7.635498
s OPTIMUM FOUND

c File: j6033_8.smor2.wcnf
c optimal
c final solution cost: 64
c CPU time: 2.945325
s OPTIMUM FOUND


rcpsp/heur_output_or_constraints/Log=2/heurj60.txt
encoding rcpsp/j60.sm/j6033_9.sm nv: 130720 nc: 339346 enctime: 4.65
encoding rcpsp/j60.sm/j6033_9.sm nv: 30780 nc: 77924 enctime: 0.61
c File: j6033_9.smnaiveor2.wcnf
c optimal
c final solution cost: 69
c CPU time: 5.834602
s OPTIMUM FOUND

c File: j6033_9.smor2.wcnf
c optimal
c final solution cost: 69
c CPU time: 0.192005
s OPTIMUM FOUND


rcpsp/heur_output_or_constraints/Log=2/heurj60.txt
encoding rcpsp/j60.sm/j603_3.sm nv: 165600 nc: 404069 enctime: 4.74
encoding rcpsp/j60.sm/j603_3.sm nv: 41860 nc: 100099 enctime: 0.79
c File: j603_3.smnaiveor2.wcnf
c optimal
c final solution cost: 89
c CPU time: 1.279383
s OPTIMUM FOUND

c File: j603_3.smor2.wcnf
c optimal
c final solution cost: 89
c CPU time: 0.157044
s OPTIMUM FOUND


rcpsp/heur_output_or_constraints/Log=2/heurj60.txt
encoding rcpsp/j60.sm/j6034_10.sm nv: 144438 nc: 374361 enctime: 6.04
encoding rcpsp/j60.sm/j6034_10.sm nv: 28329 nc: 71139 enctime: 0.35
c File: j6034_10.smnaiveor2.wcnf
c optimal
c final solution cost: 59
c CPU time: 3.223891
s OPTIMUM FOUND

c File: j6034_10.smor2.wcnf
c optimal
c final solution cost: 59
c CPU time: 0.319494
s OPTIMUM FOUND


rcpsp/heur_output_or_constraints/Log=2/heurj60.txt
encoding rcpsp/j60.sm/j6034_1.sm nv: 134970 nc: 334410 enctime: 4.31
encoding rcpsp/j60.sm/j6034_1.sm nv: 25358 nc: 60782 enctime: 0.42
c File: j6034_1.smnaiveor2.wcnf
c optimal
c final solution cost: 54
c CPU time: 1.136684
s OPTIMUM FOUND

c File: j6034_1.smor2.wcnf
c optimal
c final solution cost: 54
c CPU time: 0.108009
s OPTIMUM FOUND


rcpsp/heur_output_or_constraints/Log=2/heurj60.txt
encoding rcpsp/j60.sm/j6034_2.sm nv: 143115 nc: 351040 enctime: 4.33
encoding rcpsp/j60.sm/j6034_2.sm nv: 25230 nc: 59986 enctime: 0.27
c File: j6034_2.smnaiveor2.wcnf
c optimal
c final solution cost: 49
c CPU time: 1.143216
s OPTIMUM FOUND

c File: j6034_2.smor2.wcnf
c optimal
c final solution cost: 49
c CPU time: 0.131624
s OPTIMUM FOUND


rcpsp/heur_output_or_constraints/Log=2/heurj60.txt
encoding rcpsp/j60.sm/j6034_3.sm nv: 144303 nc: 341178 enctime: 4.22
encoding rcpsp/j60.sm/j6034_3.sm nv: 23350 nc: 53429 enctime: 0.24
c File: j6034_3.smnaiveor2.wcnf
c optimal
c final solution cost: 43
c CPU time: 3.854375
s OPTIMUM FOUND

c File: j6034_3.smor2.wcnf
c optimal
c final solution cost: 43
c CPU time: 0.082096
s OPTIMUM FOUND


rcpsp/heur_output_or_constraints/Log=2/heurj60.txt
encoding rcpsp/j60.sm/j6034_4.sm nv: 147870 nc: 353069 enctime: 4.22
encoding rcpsp/j60.sm/j6034_4.sm nv: 26505 nc: 61271 enctime: 0.28
c File: j6034_4.smnaiveor2.wcnf
c optimal
c final solution cost: 54
c CPU time: 1.051723
s OPTIMUM FOUND

c File: j6034_4.smor2.wcnf
c optimal
c final solution cost: 54
c CPU time: 0.076119
s OPTIMUM FOUND


rcpsp/heur_output_or_constraints/Log=2/heurj60.txt
encoding rcpsp/j60.sm/j6034_5.sm nv: 133025 nc: 322649 enctime: 3.89
encoding rcpsp/j60.sm/j6034_5.sm nv: 25075 nc: 58997 enctime: 0.41
c File: j6034_5.smnaiveor2.wcnf
c optimal
c final solution cost: 55
c CPU time: 1.106233
s OPTIMUM FOUND

c File: j6034_5.smor2.wcnf
c optimal
c final solution cost: 55
c CPU time: 0.081386
s OPTIMUM FOUND


rcpsp/heur_output_or_constraints/Log=2/heurj60.txt
encoding rcpsp/j60.sm/j6034_6.sm nv: 149644 nc: 377717 enctime: 5.00
encoding rcpsp/j60.sm/j6034_6.sm nv: 27170 nc: 66258 enctime: 0.47
c File: j6034_6.smnaiveor2.wcnf
c optimal
c final solution cost: 59
c CPU time: 1.358588
s OPTIMUM FOUND

c File: j6034_6.smor2.wcnf
c optimal
c final solution cost: 59
c CPU time: 0.100944
s OPTIMUM FOUND


rcpsp/heur_output_or_constraints/Log=2/heurj60.txt
encoding rcpsp/j60.sm/j6034_7.sm nv: 145515 nc: 353392 enctime: 4.34
encoding rcpsp/j60.sm/j6034_7.sm nv: 27590 nc: 65072 enctime: 0.45
c File: j6034_7.smnaiveor2.wcnf
c optimal
c final solution cost: 58
c CPU time: 1.463546
s OPTIMUM FOUND

c File: j6034_7.smor2.wcnf
c optimal
c final solution cost: 58
c CPU time: 0.108252
s OPTIMUM FOUND


rcpsp/heur_output_or_constraints/Log=2/heurj60.txt
encoding rcpsp/j60.sm/j6034_8.sm nv: 136880 nc: 318741 enctime: 3.78
encoding rcpsp/j60.sm/j6034_8.sm nv: 30680 nc: 69891 enctime: 0.53
c File: j6034_8.smnaiveor2.wcnf
c optimal
c final solution cost: 58
c CPU time: 1.093088
s OPTIMUM FOUND

c File: j6034_8.smor2.wcnf
c optimal
c final solution cost: 58
c CPU time: 0.110838
s OPTIMUM FOUND


rcpsp/heur_output_or_constraints/Log=2/heurj60.txt
encoding rcpsp/j60.sm/j6034_9.sm nv: 131200 nc: 322783 enctime: 4.28
encoding rcpsp/j60.sm/j6034_9.sm nv: 27060 nc: 64719 enctime: 0.53
c File: j6034_9.smnaiveor2.wcnf
c optimal
c final solution cost: 64
c CPU time: 1.140516
s OPTIMUM FOUND

c File: j6034_9.smor2.wcnf
c optimal
c final solution cost: 64
c CPU time: 0.103729
s OPTIMUM FOUND


rcpsp/heur_output_or_constraints/Log=2/heurj60.txt
encoding rcpsp/j60.sm/j603_4.sm nv: 186592 nc: 432852 enctime: 4.80
encoding rcpsp/j60.sm/j603_4.sm nv: 28288 nc: 63573 enctime: 0.48
c File: j603_4.smnaiveor2.wcnf
c optimal
c final solution cost: 49
c CPU time: 1.249561
s OPTIMUM FOUND

c File: j603_4.smor2.wcnf
c optimal
c final solution cost: 49
c CPU time: 0.073190
s OPTIMUM FOUND


rcpsp/heur_output_or_constraints/Log=2/heurj60.txt
encoding rcpsp/j60.sm/j6035_10.sm nv: 167936 nc: 398440 enctime: 5.18
encoding rcpsp/j60.sm/j6035_10.sm nv: 26624 nc: 61168 enctime: 0.28
c File: j6035_10.smnaiveor2.wcnf
c optimal
c final solution cost: 48
c CPU time: 1.274721
s OPTIMUM FOUND

c File: j6035_10.smor2.wcnf
c optimal
c final solution cost: 48
c CPU time: 0.095083
s OPTIMUM FOUND


rcpsp/heur_output_or_constraints/Log=2/heurj60.txt
encoding rcpsp/j60.sm/j6035_1.sm nv: 180186 nc: 436691 enctime: 6.48
encoding rcpsp/j60.sm/j6035_1.sm nv: 34103 nc: 80524 enctime: 0.39
c File: j6035_1.smnaiveor2.wcnf
c optimal
c final solution cost: 64
c CPU time: 1.484393
s OPTIMUM FOUND

c File: j6035_1.smor2.wcnf
c optimal
c final solution cost: 64
c CPU time: 0.113558
s OPTIMUM FOUND


rcpsp/heur_output_or_constraints/Log=2/heurj60.txt
encoding rcpsp/j60.sm/j6035_2.sm nv: 190320 nc: 459524 enctime: 6.84
encoding rcpsp/j60.sm/j6035_2.sm nv: 31200 nc: 73046 enctime: 0.33
c File: j6035_2.smnaiveor2.wcnf
c optimal
c final solution cost: 49
c CPU time: 1.744620
s OPTIMUM FOUND

c File: j6035_2.smor2.wcnf
c optimal
c final solution cost: 49
c CPU time: 0.132520
s OPTIMUM FOUND


rcpsp/heur_output_or_constraints/Log=2/heurj60.txt
encoding rcpsp/j60.sm/j6035_3.sm nv: 155601 nc: 379170 enctime: 4.62
encoding rcpsp/j60.sm/j6035_3.sm nv: 33966 nc: 80780 enctime: 0.54
c File: j6035_3.smnaiveor2.wcnf
c optimal
c final solution cost: 66
c CPU time: 1.329860
s OPTIMUM FOUND

c File: j6035_3.smor2.wcnf
c optimal
c final solution cost: 66
c CPU time: 0.104355
s OPTIMUM FOUND


rcpsp/heur_output_or_constraints/Log=2/heurj60.txt
encoding rcpsp/j60.sm/j6035_4.sm nv: 159896 nc: 375112 enctime: 4.26
encoding rcpsp/j60.sm/j6035_4.sm nv: 31372 nc: 71836 enctime: 0.55
c File: j6035_4.smnaiveor2.wcnf
c optimal
c final solution cost: 53
c CPU time: 1.204375
s OPTIMUM FOUND

c File: j6035_4.smor2.wcnf
c optimal
c final solution cost: 53
c CPU time: 0.093432
s OPTIMUM FOUND


